language Essence 1.3

letting costTC be
        function((1, 1) --> 4, (1, 2) --> 9, (1, 3) --> 7, (1, 4) --> 8, (1, 5) --> 4, (1, 6) --> 5, (1, 7) --> 9,
                 (1, 8) --> 7, (2, 1) --> 6, (2, 2) --> 10, (2, 3) --> 10, (2, 4) --> 10, (2, 5) --> 5, (2, 6) --> 8,
                 (2, 7) --> 10, (2, 8) --> 4, (3, 1) --> 10, (3, 2) --> 10, (3, 3) --> 8, (3, 4) --> 6, (3, 5) --> 5,
                 (3, 6) --> 5, (3, 7) --> 9, (3, 8) --> 4, (4, 1) --> 10, (4, 2) --> 5, (4, 3) --> 8, (4, 4) --> 4,
                 (4, 5) --> 4, (4, 6) --> 8, (4, 7) --> 9, (4, 8) --> 8, (5, 1) --> 9, (5, 2) --> 4, (5, 3) --> 10,
                 (5, 4) --> 4, (5, 5) --> 5, (5, 6) --> 8, (5, 7) --> 9, (5, 8) --> 5, (6, 1) --> 5, (6, 2) --> 5,
                 (6, 3) --> 10, (6, 4) --> 8, (6, 5) --> 4, (6, 6) --> 7, (6, 7) --> 5, (6, 8) --> 5, (7, 1) --> 8,
                 (7, 2) --> 7, (7, 3) --> 9, (7, 4) --> 8, (7, 5) --> 9, (7, 6) --> 6, (7, 7) --> 4, (7, 8) --> 6,
                 (8, 1) --> 10, (8, 2) --> 10, (8, 3) --> 4, (8, 4) --> 6, (8, 5) --> 9, (8, 6) --> 6, (8, 7) --> 6,
                 (8, 8) --> 7, (9, 1) --> 9, (9, 2) --> 10, (9, 3) --> 7, (9, 4) --> 4, (9, 5) --> 5, (9, 6) --> 8,
                 (9, 7) --> 6, (9, 8) --> 7, (10, 1) --> 9, (10, 2) --> 5, (10, 3) --> 10, (10, 4) --> 5, (10, 5) --> 4,
                 (10, 6) --> 10, (10, 7) --> 5, (10, 8) --> 8, (11, 1) --> 4, (11, 2) --> 8, (11, 3) --> 10,
                 (11, 4) --> 9, (11, 5) --> 5, (11, 6) --> 7, (11, 7) --> 7, (11, 8) --> 7, (12, 1) --> 5,
                 (12, 2) --> 7, (12, 3) --> 7, (12, 4) --> 10, (12, 5) --> 6, (12, 6) --> 6, (12, 7) --> 7,
                 (12, 8) --> 7, (13, 1) --> 6, (13, 2) --> 5, (13, 3) --> 5, (13, 4) --> 4, (13, 5) --> 9,
                 (13, 6) --> 4, (13, 7) --> 4, (13, 8) --> 10, (14, 1) --> 8, (14, 2) --> 8, (14, 3) --> 8,
                 (14, 4) --> 8, (14, 5) --> 8, (14, 6) --> 4, (14, 7) --> 10, (14, 8) --> 7, (15, 1) --> 6,
                 (15, 2) --> 7, (15, 3) --> 10, (15, 4) --> 9, (15, 5) --> 5, (15, 6) --> 10, (15, 7) --> 7,
                 (15, 8) --> 9, (16, 1) --> 10, (16, 2) --> 4, (16, 3) --> 10, (16, 4) --> 4, (16, 5) --> 7,
                 (16, 6) --> 4, (16, 7) --> 9, (16, 8) --> 10, (17, 1) --> 4, (17, 2) --> 8, (17, 3) --> 4,
                 (17, 4) --> 4, (17, 5) --> 5, (17, 6) --> 9, (17, 7) --> 9, (17, 8) --> 5, (18, 1) --> 8,
                 (18, 2) --> 6, (18, 3) --> 6, (18, 4) --> 9, (18, 5) --> 5, (18, 6) --> 6, (18, 7) --> 10,
                 (18, 8) --> 6, (19, 1) --> 7, (19, 2) --> 7, (19, 3) --> 4, (19, 4) --> 6, (19, 5) --> 10,
                 (19, 6) --> 8, (19, 7) --> 10, (19, 8) --> 7, (20, 1) --> 10, (20, 2) --> 10, (20, 3) --> 7,
                 (20, 4) --> 6, (20, 5) --> 9, (20, 6) --> 4, (20, 7) --> 7, (20, 8) --> 9, (21, 1) --> 5,
                 (21, 2) --> 5, (21, 3) --> 5, (21, 4) --> 10, (21, 5) --> 4, (21, 6) --> 6, (21, 7) --> 8,
                 (21, 8) --> 7, (22, 1) --> 8, (22, 2) --> 9, (22, 3) --> 4, (22, 4) --> 10, (22, 5) --> 10,
                 (22, 6) --> 4, (22, 7) --> 4, (22, 8) --> 4)
letting costWT be
        function((1, 1) --> 4, (1, 2) --> 3, (1, 3) --> 4, (1, 4) --> 1, (1, 5) --> 2, (1, 6) --> 3, (1, 7) --> 1,
                 (1, 8) --> 2, (1, 9) --> 1, (1, 10) --> 1, (1, 11) --> 2, (1, 12) --> 3, (1, 13) --> 2, (1, 14) --> 3,
                 (1, 15) --> 4, (1, 16) --> 2, (1, 17) --> 4, (1, 18) --> 4, (1, 19) --> 4, (1, 20) --> 3,
                 (1, 21) --> 4, (1, 22) --> 3, (2, 1) --> 2, (2, 2) --> 3, (2, 3) --> 4, (2, 4) --> 4, (2, 5) --> 1,
                 (2, 6) --> 4, (2, 7) --> 2, (2, 8) --> 4, (2, 9) --> 4, (2, 10) --> 4, (2, 11) --> 1, (2, 12) --> 1,
                 (2, 13) --> 3, (2, 14) --> 2, (2, 15) --> 1, (2, 16) --> 3, (2, 17) --> 3, (2, 18) --> 4,
                 (2, 19) --> 1, (2, 20) --> 2, (2, 21) --> 3, (2, 22) --> 1, (3, 1) --> 3, (3, 2) --> 4, (3, 3) --> 2,
                 (3, 4) --> 1, (3, 5) --> 2, (3, 6) --> 1, (3, 7) --> 4, (3, 8) --> 3, (3, 9) --> 2, (3, 10) --> 3,
                 (3, 11) --> 3, (3, 12) --> 2, (3, 13) --> 4, (3, 14) --> 1, (3, 15) --> 1, (3, 16) --> 1,
                 (3, 17) --> 2, (3, 18) --> 4, (3, 19) --> 2, (3, 20) --> 3, (3, 21) --> 4, (3, 22) --> 2, (4, 1) --> 1,
                 (4, 2) --> 4, (4, 3) --> 3, (4, 4) --> 3, (4, 5) --> 3, (4, 6) --> 4, (4, 7) --> 3, (4, 8) --> 2,
                 (4, 9) --> 3, (4, 10) --> 1, (4, 11) --> 1, (4, 12) --> 4, (4, 13) --> 2, (4, 14) --> 4, (4, 15) --> 3,
                 (4, 16) --> 1, (4, 17) --> 1, (4, 18) --> 2, (4, 19) --> 4, (4, 20) --> 2, (4, 21) --> 3,
                 (4, 22) --> 2, (5, 1) --> 3, (5, 2) --> 1, (5, 3) --> 3, (5, 4) --> 1, (5, 5) --> 4, (5, 6) --> 2,
                 (5, 7) --> 1, (5, 8) --> 2, (5, 9) --> 2, (5, 10) --> 3, (5, 11) --> 4, (5, 12) --> 2, (5, 13) --> 3,
                 (5, 14) --> 1, (5, 15) --> 3, (5, 16) --> 3, (5, 17) --> 4, (5, 18) --> 3, (5, 19) --> 4,
                 (5, 20) --> 2, (5, 21) --> 4, (5, 22) --> 1, (6, 1) --> 2, (6, 2) --> 1, (6, 3) --> 4, (6, 4) --> 1,
                 (6, 5) --> 4, (6, 6) --> 2, (6, 7) --> 1, (6, 8) --> 2, (6, 9) --> 2, (6, 10) --> 1, (6, 11) --> 3,
                 (6, 12) --> 3, (6, 13) --> 2, (6, 14) --> 3, (6, 15) --> 3, (6, 16) --> 2, (6, 17) --> 3,
                 (6, 18) --> 3, (6, 19) --> 4, (6, 20) --> 4, (6, 21) --> 2, (6, 22) --> 1, (7, 1) --> 3, (7, 2) --> 3,
                 (7, 3) --> 2, (7, 4) --> 4, (7, 5) --> 1, (7, 6) --> 3, (7, 7) --> 3, (7, 8) --> 1, (7, 9) --> 1,
                 (7, 10) --> 4, (7, 11) --> 1, (7, 12) --> 1, (7, 13) --> 2, (7, 14) --> 4, (7, 15) --> 2,
                 (7, 16) --> 4, (7, 17) --> 3, (7, 18) --> 4, (7, 19) --> 3, (7, 20) --> 1, (7, 21) --> 3,
                 (7, 22) --> 3)
letting demand be function(1 --> 4, 2 --> 4, 3 --> 4, 4 --> 4, 5 --> 4, 6 --> 4, 7 --> 4, 8 --> 4)
letting maxCost be 46
letting n_customer be 8
letting n_transshipment be 22
letting n_warehouses be 7
letting stock be function(1 --> 2, 2 --> 8, 3 --> 3, 4 --> 6, 5 --> 3, 6 --> 6, 7 --> 5)
